12781.0
6, 10, 13, 37, 38, 48, 56, 102, 121, 137, 147, 149, 151, 211, 262, 266, 281, 287, 317, 379, 382, 397, 398, 419, 421, 426, 463, 473, 480, 531, 539, 545, 553, 599, 603, 632, 643, 657, 658, 669, 672, 688, 732, 786, 807, 818, 830, 849, 945, 967, 1031, 1043, 1048, 1117, 1137, 1138, 1187, 1204, 1246, 1248, 1260, 1307, 1322, 1344, 1353, 1394, 1400, 1413, 1431, 1445, 1457, 1463, 1472, 1475, 1485, 1507, 1544, 1548, 1572, 1575, 1618, 1638, 1647, 1690, 1709, 1713, 1716, 1757, 1831, 1840, 1861, 1866, 1873, 1882, 1890, 1900, 1919, 1954, 1955, 1985